NAME: dj38
COMMENT : 38 locations in Djibouti
COMMENT : Derived from National Imagery and Mapping Agency data
COMMENT : This file is a corrected version of dj89, where duplications
COMMENT:  have been removed.  Thanks to Jay Muthuswamy and others for
COMMENT:  requesting data sets without duplications.
TYPE: TSP
DIMENSION: 38
EDGE_WEIGHT_TYPE: EUC_2D
NODE_COORD_SECTION
1 2 5
2 2 3
3 1 2
4 4 5
5 5 4
6 4 3
7 6 3
8 3 1
